%chk=002_Acetylene.chk
%mem=8GB
%nprocshared=8
# HF/6-31G Opt

002_Acetylene

0 1
 C     0.00000000     0.00000000     0.60351788
 C     0.00000000     0.00000000    -0.60351788
 H     0.00000000     0.00000000     1.66166429
 H     0.00000000     0.00000000    -1.66166429

