%chk=006_Diazomethane.chk
%mem=8GB
%nprocshared=8
# HF/6-31G Opt

006_Diazomethane

0 1
 C     0.00000000     0.00000000    -1.22149978
 N     0.00000000     0.00000000     0.07650786
 N     0.00000000     0.00000000     1.21670126
 H     0.00000000     0.95185857    -1.71597520
 H     0.00000000    -0.95185857    -1.71597520

