%chk=008_Ethylene.chk
%mem=8GB
%nprocshared=8
# HF/6-31G Opt

008_Ethylene

0 1
 C     0.00000000     0.66690396     0.00000000
 C     0.00000000    -0.66690396     0.00000000
 H     0.00000000     1.22952195     0.92229064
 H     0.00000000    -1.22952195     0.92229064
 H     0.00000000     1.22952195    -0.92229064
 H     0.00000000    -1.22952195    -0.92229064

