%chk=012_Ketene.chk
%mem=8GB
%nprocshared=8
# HF/6-31G Opt

012_Ketene

0 1
 C     0.00000000     0.00000000    -1.29547953
 C     0.00000000     0.00000000     0.01851350
 O     0.00000000     0.00000000     1.18357846
 H     0.00000000     0.93893013    -1.81881376
 H     0.00000000    -0.93893013    -1.81881376

