%chk=015_Streptocyanine-C1.chk
%mem=8GB
%nprocshared=8
# HF/6-31G Opt

015_Streptocyanine-C1

1 1
 C     0.00000000     0.00000000     0.42592856
 N     0.00000000     1.16113896    -0.17770068
 N     0.00000000    -1.16113896    -0.17770068
 H     0.00000000     0.00000000     1.50517557
 H     0.00000000     1.25403524    -1.18203359
 H     0.00000000    -1.25403524    -1.18203359
 H     0.00000000     2.00776527     0.36724478
 H     0.00000000    -2.00776527     0.36724478

