%chk=016_Thioformaldehyde.chk
%mem=8GB
%nprocshared=8
# HF/6-31G Opt

016_Thioformaldehyde

0 1
 C     0.00000000     0.00000000    -1.10427274
 S     0.00000000     0.00000000     0.51463116
 H     0.00000000     0.91895736    -1.67756323
 H     0.00000000    -0.91895736    -1.67756323

