%chk=017_Water.chk
%mem=8GB
%nprocshared=8
# HF/6-31G Opt

017_Water

0 1
 O     0.00000000     0.00000000    -0.06990256
 H     0.00000000     0.75753241     0.51843495
 H     0.00000000    -0.75753241     0.51843495

