%chk=001_ScH.chk
%mem=8GB
%nprocshared=8
# HF/6-31G Opt

001_ScH

0 1
Sc     0.00000000     0.00000000     0.00000000
 H     0.00000000     0.00000000     1.79600000

