%chk=002_ScO.chk
%mem=8GB
%nprocshared=8
# HF/6-31G Opt

002_ScO

0 2
Sc     0.00000000     0.00000000     0.00000000
 O     0.00000000     0.00000000     1.69900000

