%chk=003_ScF.chk
%mem=8GB
%nprocshared=8
# HF/6-31G Opt

003_ScF

0 1
Sc     0.00000000     0.00000000     0.00000000
 F     0.00000000     0.00000000     1.78800000

