%chk=004_ScS.chk
%mem=8GB
%nprocshared=8
# HF/6-31G Opt

004_ScS

0 2
Sc     0.00000000     0.00000000     0.00000000
 S     0.00000000     0.00000000     2.16800000

