%chk=005_TiN.chk
%mem=8GB
%nprocshared=8
# HF/6-31G Opt

005_TiN

0 2
Ti     0.00000000     0.00000000     0.00000000
 N     0.00000000     0.00000000     1.59900000

