%chk=006_CuH.chk
%mem=8GB
%nprocshared=8
# HF/6-31G Opt

006_CuH

0 1
Cu     0.00000000     0.00000000     0.00000000
 H     0.00000000     0.00000000     1.48000000

