%chk=007_CuF.chk
%mem=8GB
%nprocshared=8
# HF/6-31G Opt

007_CuF

0 1
Cu     0.00000000     0.00000000     0.00000000
 F     0.00000000     0.00000000     1.75800000

