%chk=008_CuCl.chk
%mem=8GB
%nprocshared=8
# HF/6-31G Opt

008_CuCl

0 1
Cu     0.00000000     0.00000000     0.00000000
Cl     0.00000000     0.00000000     2.07500000

