%chk=009_ZnH.chk
%mem=8GB
%nprocshared=8
# HF/6-31G Opt

009_ZnH

0 2
Zn     0.00000000     0.00000000     0.00000000
 H     0.00000000     0.00000000     1.60300000

