%chk=010_ZnO.chk
%mem=8GB
%nprocshared=8
# HF/6-31G Opt

010_ZnO

0 1
Zn     0.00000000     0.00000000     0.00000000
 O     0.00000000     0.00000000     1.70000000

