%chk=011_ZnS.chk
%mem=8GB
%nprocshared=8
# HF/6-31G Opt

011_ZnS

0 1
Zn     0.00000000     0.00000000     0.00000000
 S     0.00000000     0.00000000     2.06800000

