%chk=001_a_S1.chk
%mem=8GB
%nprocshared=8
# HF/6-31G Opt

001_a_S1

0 1
 N    -0.00296000     0.00032000     0.25445000
 N     2.26911000    -0.58776000    -0.01790000
 N     0.58158000    -2.27259000    -0.01854000
 N    -1.64190000    -1.67500000    -0.04459000
 N    -2.25712000     0.62877000    -0.07128000
 N    -0.62768000     2.25560000    -0.07067000
 N     1.67508000     1.63668000    -0.04334000
 C     1.35167000     0.35967000     0.04722000
 C     1.85128000    -1.85680000     0.02491000
 C    -0.36441000    -1.35366000     0.04657000
 C    -2.53272000    -0.67851000    -0.02658000
 C    -0.99006000     0.98908000     0.01953000
 C     0.68002000     2.52910000    -0.02538000
 H     2.61546000    -2.62222000     0.02577000
 H     0.96091000     3.57341000    -0.04520000
 H    -3.57747000    -0.95772000    -0.04691000

