%chk=002_a_T1.chk
%mem=8GB
%nprocshared=8
# HF/6-31G Opt

002_a_T1

0 1
 N    -0.00154000    -0.00105000     0.09767000
 N     2.27537000    -0.58735000     0.01160000
 N     0.58115000    -2.27886000     0.01095000
 N    -1.64533000    -1.68048000    -0.01509000
 N    -2.26300000     0.63246000    -0.04192000
 N    -0.63138000     2.26147000    -0.04130000
 N     1.68057000     1.64010000    -0.01381000
 C     1.35754000     0.36098000     0.02604000
 C     1.85267000    -1.85820000     0.02973000
 C    -0.36572000    -1.35952000     0.02539000
 C    -2.53470000    -0.67900000    -0.02174000
 C    -0.99400000     0.99304000    -0.00181000
 C     0.68051000     2.53108000    -0.02051000
 H     2.61652000    -2.62328000     0.03544000
 H     0.96124000     3.57504000    -0.03541000
 H    -3.57910000    -0.95805000    -0.03714000

