%chk=003_b_S1.chk
%mem=8GB
%nprocshared=8
# HF/6-31G Opt

003_b_S1

0 1
 O     9.43859000    -3.96619000     0.68956000
 C     8.51398000    -3.01768000     0.54258000
 N     7.48192000    -3.27372000    -0.26286000
 C     6.64253000    -2.28557000    -0.50682000
 N     5.56837000    -2.46872000    -1.24849000
 C     4.74296000    -1.43115000    -1.40158000
 N     4.76818000    -0.29926000    -0.69917000
 C     5.83059000    -0.08250000     0.04669000
 N     5.91808000     0.98897000     0.81298000
 C     7.00094000     1.11115000     1.58235000
 N     7.89355000     0.15622000     1.83890000
 C     7.84635000    -0.92783000     1.09029000
 N     8.66063000    -1.93917000     1.31145000
 N     6.93139000    -0.98654000    -0.00517000
 O     7.16051000     2.25135000     2.25290000
 O     3.72628000    -1.56531000    -2.25335000
 H     9.18799000    -4.71355000     0.13139000
 H     6.42125000     2.83195000     2.03012000
 H     3.78547000    -2.44450000    -2.64886000

