%chk=004_b_T1.chk
%mem=8GB
%nprocshared=8
# HF/6-31G Opt

004_b_T1

0 1
 O     9.43787000    -3.96026000     0.71867000
 C     8.51944000    -3.01791000     0.53468000
 N     7.54301000    -3.26738000    -0.31309000
 C     6.61640000    -2.31431000    -0.49756000
 N     5.60079000    -2.44291000    -1.31083000
 C     4.73466000    -1.43421000    -1.42153000
 N     4.80554000    -0.26338000    -0.75834000
 C     5.80049000    -0.08946000     0.06307000
 N     5.95911000     1.03756000     0.76761000
 C     7.00454000     1.11217000     1.57435000
 N     7.95266000     0.18966000     1.79030000
 C     7.81544000    -0.94072000     1.09980000
 N     8.72295000    -1.90234000     1.26599000
 N     6.77214000    -1.10504000     0.24648000
 O     7.15771000     2.22986000     2.26935000
 O     3.68932000    -1.56660000    -2.25867000
 H     9.20700000    -4.71211000     0.15673000
 H     6.42821000     2.82319000     2.04310000
 H     3.75232000    -2.43784000    -2.66720000

