%chk=005_c_S1.chk
%mem=8GB
%nprocshared=8
# HF/6-31G Opt

005_c_S1

0 1
 N     1.23139000     2.26684000    -0.03134000
 C    -0.06971000     2.60767000    -0.03080000
 N    -1.09437000     1.75632000    -0.02104000
 C    -0.82492000     0.47027000    -0.01082000
 C    -1.81132000    -0.52459000     0.00006000
 C    -1.43844000    -1.87546000     0.01056000
 N    -0.16379000    -2.26967000     0.01059000
 C     0.79867000    -1.36727000     0.00057000
 C     2.14128000    -1.75015000     0.00026000
 C     3.16387000    -0.80550000    -0.01041000
 C     2.86326000     0.54558000    -0.02109000
 C     1.53259000     0.99023000    -0.02128000
 N     0.51411000     0.01391000    -0.01017000
 C    -3.18789000    -0.15474000     0.00030000
 N    -4.31060000     0.08396000     0.00103000
 H     3.62411000     1.31217000    -0.02971000
 H    -2.19723000    -2.64579000     0.01905000
 H     2.33583000    -2.81254000     0.00870000
 H     4.19488000    -1.12957000    -0.01041000
 H    -0.30284000     3.66287000    -0.03913000

