%chk=006_c_T1.chk
%mem=8GB
%nprocshared=8
# HF/6-31G Opt

006_c_T1

0 1
 N     1.23024000     2.26763000    -0.03135000
 C    -0.06764000     2.60475000    -0.03083000
 N    -1.09607000     1.75440000    -0.02102000
 C    -0.82530000     0.46984000    -0.01085000
 C    -1.81095000    -0.52522000     0.00007000
 C    -1.43821000    -1.87686000     0.01053000
 N    -0.16209000    -2.27064000     0.01056000
 C     0.79813000    -1.36642000     0.00049000
 C     2.14194000    -1.74757000     0.00021000
 C     3.16798000    -0.80670000    -0.01038000
 C     2.86091000     0.54535000    -0.02104000
 C     1.53207000     0.98658000    -0.02128000
 N     0.51045000     0.01495000    -0.01034000
 C    -3.18654000    -0.15167000     0.00036000
 N    -4.30882000     0.08923000     0.00113000
 H     3.61835000     1.31552000    -0.02961000
 H    -2.19609000    -2.64760000     0.01904000
 H     2.33307000    -2.81088000     0.00871000
 H     4.19855000    -1.13029000    -0.01034000
 H    -0.30107000     3.66013000    -0.03917000

