%chk=007_d_S1.chk
%mem=8GB
%nprocshared=8
# HF/6-31G Opt

007_d_S1

0 1
 C     9.19179000    -4.74207000     0.29756000
 C     8.28537000    -3.55706000     0.27142000
 N     7.40196000    -3.45144000    -0.72578000
 C     6.56891000    -2.43098000    -0.73148000
 N     5.68303000    -2.26922000    -1.69448000
 C     4.87958000    -1.20776000    -1.63745000
 N     4.94403000    -0.21097000    -0.73012000
 C     5.81769000    -0.33176000     0.24294000
 C     5.99972000     0.67060000     1.20127000
 C     6.97361000     0.54782000     2.19257000
 C     7.80958000    -0.55867000     2.20553000
 C     7.66263000    -1.59275000     1.26307000
 N     8.46956000    -2.62357000     1.23404000
 N     6.58827000    -1.50690000     0.35205000
 N     3.95955000    -1.06215000    -2.63499000
 H    10.21849000    -4.43638000     0.08128000
 H     8.87462000    -5.47220000    -0.44179000
 H     9.19408000    -5.19360000     1.29039000
 H     5.36188000     1.53822000     1.11956000
 H     7.09975000     1.33121000     2.92603000
 H     8.61020000    -0.67405000     2.92133000
 H     3.75909000    -1.87809000    -3.18693000
 H     3.21784000    -0.40249000    -2.47848000

