%chk=008_d_T1.chk
%mem=8GB
%nprocshared=8
# HF/6-31G Opt

008_d_T1

0 1
 C     9.18113000    -4.73984000     0.29386000
 C     8.29705000    -3.53605000     0.29647000
 N     7.33943000    -3.50655000    -0.65415000
 C     6.53928000    -2.44764000    -0.67425000
 N     5.57939000    -2.36825000    -1.58863000
 C     4.80908000    -1.27928000    -1.55468000
 N     4.89659000    -0.24859000    -0.69436000
 C     5.84680000    -0.31090000     0.22236000
 C     6.03546000     0.69656000     1.16795000
 C     7.05069000     0.63039000     2.14827000
 C     7.87410000    -0.49250000     2.14369000
 C     7.72984000    -1.52997000     1.22084000
 N     8.51508000    -2.60536000     1.21422000
 N     6.69874000    -1.43726000     0.24298000
 N     3.83639000    -1.19603000    -2.47879000
 H     9.91552000    -4.67604000     1.09140000
 H     9.68316000    -4.82217000    -0.67135000
 H     8.57462000    -5.63872000     0.41434000
 H     5.35267000     1.53173000     1.10078000
 H     7.18030000     1.41925000     2.87031000
 H     8.67438000    -0.62104000     2.86006000
 H     3.72950000    -1.94077000    -3.14331000
 H     3.23206000    -0.39522000    -2.49049000

