%chk=009_e_S1.chk
%mem=8GB
%nprocshared=8
# HF/6-31G Opt

009_e_S1

0 1
 C    -1.00467000     0.82115000     1.20184000
 C    -1.02099000     1.85411000     2.19889000
 C     0.03365000     2.64166000     2.51884000
 C     1.40394000     2.70270000     2.01216000
 C     2.05530000     1.99113000     1.06125000
 C     1.47616000     0.93174000     0.28436000
 C    -1.99992000    -0.08919000     0.73965000
 C     0.14436000     0.53677000     0.45509000
 C     1.99992000     0.08919000    -0.73965000
 C    -1.47616000    -0.93174000    -0.28437000
 C    -0.14436000    -0.53677000    -0.45509000
 C     1.00467000    -0.82115000    -1.20184000
 C    -2.05530000    -1.99113000    -1.06125000
 C     1.02099000    -1.85411000    -2.19889000
 C    -1.40394000    -2.70270000    -2.01216000
 C    -0.03365000    -2.64166000    -2.51884000
 H     3.01389000     0.13432000    -1.11457000
 H     1.94653000    -2.01968000    -2.73960000
 H     0.15713000    -3.37150000    -3.29748000
 H    -1.99678000    -3.46748000    -2.50101000
 H     1.99679000     3.46748000     2.50101000
 H    -3.01389000    -0.13432000     1.11457000
 H     3.09354000     2.24417000     0.87567000
 H    -3.09355000    -2.24417000    -0.87567000
 H    -1.94653000     2.01968000     2.73960000
 H    -0.15713000     3.37150000     3.29748000

