%chk=010_e_T1.chk
%mem=8GB
%nprocshared=8
# HF/6-31G Opt

010_e_T1

0 1
 C    -1.00443000     0.82111000     1.20167000
 C    -1.02134000     1.85401000     2.19892000
 C     0.03349000     2.64127000     2.51853000
 C     1.40390000     2.70232000     2.01180000
 C     2.05559000     1.99106000     1.06104000
 C     1.47588000     0.93168000     0.28440000
 C    -1.99942000    -0.08917000     0.73945000
 C     0.14385000     0.53491000     0.45350000
 C     1.99942000     0.08917000    -0.73945000
 C    -1.47588000    -0.93168000    -0.28441000
 C    -0.14385000    -0.53491000    -0.45350000
 C     1.00443000    -0.82111000    -1.20167000
 C    -2.05560000    -1.99106000    -1.06104000
 C     1.02134000    -1.85401000    -2.19892000
 C    -1.40390000    -2.70232000    -2.01180000
 C    -0.03349000    -2.64127000    -2.51853000
 H     3.01360000     0.13430000    -1.11445000
 H     1.94678000    -2.01974000    -2.73977000
 H     0.15703000    -3.37119000    -3.29717000
 H    -1.99654000    -3.46717000    -2.50081000
 H     1.99654000     3.46717000     2.50081000
 H    -3.01360000    -0.13430000     1.11445000
 H     3.09384000     2.24426000     0.87563000
 H    -3.09384000    -2.24426000    -0.87563000
 H    -1.94678000     2.01974000     2.73977000
 H    -0.15703000     3.37119000     3.29717000

