%chk=011_f_S1.chk
%mem=8GB
%nprocshared=8
# HF/6-31G Opt

011_f_S1

0 1
 C     0.24979000     2.21235000     0.14022000
 C     3.44513000     0.97729000    -0.28893000
 C     0.41755000     0.81989000     0.05655000
 C     4.82825000     1.04251000    -0.27941000
 C     5.58033000    -0.07702000     0.05214000
 C     4.93273000    -1.26310000     0.37351000
 C     3.54970000    -1.32961000     0.36508000
 C    -4.38049000    -2.63927000    -0.13956000
 C    -4.18838000     2.22185000     0.12034000
 C     1.32284000    -0.26613000     0.02169000
 C     0.52810000    -1.44863000    -0.03316000
 C    -0.85636000    -1.14480000    -0.03565000
 C    -2.00882000    -1.99129000    -0.08755000
 C    -3.30409000    -1.58306000    -0.07693000
 C    -3.85337000    -0.22813000    -0.00862000
 C    -3.30072000     1.01152000     0.05781000
 C    -1.88260000     1.25435000     0.07263000
 C    -0.92785000     0.24801000     0.02134000
 C    -1.13674000     2.47109000     0.14752000
 C     2.77851000    -0.20994000     0.03363000
 H     3.05977000    -2.25507000     0.63890000
 H     6.66109000    -0.02611000     0.05983000
 H    -1.56912000     3.46054000     0.20669000
 H     2.86732000     1.84686000    -0.57311000
 H    -3.99060000     2.79154000     1.03157000
 H    -3.98529000     2.88649000    -0.72285000
 H    -5.24150000     1.95006000     0.10255000
 H    -4.93968000    -0.23089000    -0.01154000
 H    -1.82887000    -3.06010000    -0.13944000
 H     0.93117000    -2.45058000    -0.09008000
 H     1.01521000     2.96892000     0.20448000
 H    -3.96012000    -3.64162000    -0.18827000
 H    -5.02863000    -2.57923000     0.73817000
 H    -5.01551000    -2.48847000    -1.01596000
 H     5.50936000    -2.14019000     0.63805000
 H     5.32292000     1.97007000    -0.53775000

