%chk=012_f_T1.chk
%mem=8GB
%nprocshared=8
# HF/6-31G Opt

012_f_T1

0 1
 C    -0.26068000     2.21674000     0.09688000
 C    -3.44951000     0.95656000    -0.30308000
 C    -0.41890000     0.82388000     0.02606000
 C    -4.83309000     1.00705000    -0.30636000
 C    -5.57736000    -0.12854000    -0.01372000
 C    -4.91989000    -1.31596000     0.28207000
 C    -3.53642000    -1.36800000     0.28673000
 C     4.40564000    -2.59887000    -0.11441000
 C     4.17632000     2.26149000     0.09958000
 C    -1.31761000    -0.27023000    -0.00516000
 C    -0.50832000    -1.44740000    -0.04698000
 C     0.87273000    -1.12823000    -0.04364000
 C     2.02952000    -1.96718000    -0.08141000
 C     3.32236000    -1.54839000    -0.06737000
 C     3.85943000    -0.19210000    -0.00897000
 C     3.29671000     1.04496000     0.04402000
 C     1.87912000     1.27943000     0.05053000
 C     0.92554000     0.26421000     0.00303000
 C     1.12902000     2.48631000     0.10974000
 C    -2.77202000    -0.23203000    -0.00620000
 H    -3.04180000    -2.29680000     0.53985000
 H    -6.65860000    -0.08907000    -0.01610000
 H     1.55463000     3.47917000     0.16192000
 H    -2.87859000     1.84000000    -0.55597000
 H     3.97225000     2.91686000    -0.75057000
 H     3.96993000     2.83793000     1.00459000
 H     5.23135000     1.99689000     0.08918000
 H     4.94574000    -0.18593000    -0.00705000
 H     1.85698000    -3.03744000    -0.12460000
 H    -0.89766000    -2.45524000    -0.09779000
 H    -1.02886000     2.97123000     0.14936000
 H     3.99170000    -3.60413000    -0.15632000
 H     5.04415000    -2.45176000    -0.98868000
 H     5.04796000    -2.52648000     0.76642000
 H    -5.48958000    -2.20614000     0.51631000
 H    -5.33451000     1.93655000    -0.54405000

