%chk=013_g_S1.chk
%mem=8GB
%nprocshared=8
# HF/6-31G Opt

013_g_S1

0 1
 C    -2.51486000     2.31481000     0.15322000
 N    -2.34135000     0.93103000    -0.23837000
 C    -1.09794000     0.37387000    -0.06557000
 N     0.00973000     1.14349000     0.02960000
 C     1.10888000     0.36197000     0.12644000
 C     0.74054000    -1.01115000     0.09176000
 C    -0.74468000    -1.00314000    -0.02803000
 C    -1.17821000    -2.31875000    -0.05805000
 C    -0.01364000    -3.12351000     0.03388000
 C     1.15966000    -2.33136000     0.12430000
 N     2.35836000     0.90577000     0.29805000
 C     2.54725000     2.28654000    -0.09703000
 C     3.48377000     0.02583000     0.08094000
 C    -3.47639000     0.06417000    -0.01879000
 H    -1.69271000     2.90904000    -0.23508000
 H    -2.54035000     2.43248000     1.24475000
 H    -3.45228000     2.68215000    -0.26262000
 H    -2.18578000    -2.69248000    -0.13004000
 H    -0.01954000    -4.20495000     0.03489000
 H     2.16310000    -2.71593000     0.19694000
 H     1.73153000     2.89076000     0.28941000
 H     2.57446000     2.40109000    -1.18885000
 H     3.48850000     2.64463000     0.31824000
 H     3.59346000    -0.26319000    -0.97324000
 H     3.36816000    -0.87609000     0.67936000
 H     4.39423000     0.53041000     0.40074000
 H    -4.38131000     0.57814000    -0.33937000
 H    -3.58884000    -0.22119000     1.03609000
 H    -3.37113000    -0.84037000    -0.61518000

