%chk=014_g_T1.chk
%mem=8GB
%nprocshared=8
# HF/6-31G Opt

014_g_T1

0 1
 C     5.10842000    -6.12357000    -4.66929000
 N     5.34308000    -6.68491000    -3.35508000
 C     5.29295000    -5.83713000    -2.27960000
 N     5.43209000    -4.50176000    -2.43285000
 C     5.40257000    -3.90110000    -1.22267000
 C     5.24229000    -4.86322000    -0.19128000
 C     5.15599000    -6.17073000    -0.90657000
 C     4.98532000    -7.16948000     0.04236000
 C     4.97085000    -6.51391000     1.30071000
 C     5.12781000    -5.10956000     1.16997000
 N     5.47124000    -2.53759000    -1.10450000
 C     6.00799000    -1.78908000    -2.22210000
 C     5.74029000    -2.00454000     0.21115000
 C     4.88443000    -8.03907000    -3.14685000
 H     5.67124000    -5.20078000    -4.77573000
 H     4.04647000    -5.90106000    -4.83657000
 H     5.44104000    -6.83843000    -5.42104000
 H     4.87597000    -8.23054000    -0.10381000
 H     4.85420000    -7.02433000     2.24780000
 H     5.15421000    -4.41108000     1.98887000
 H     5.57122000    -2.15437000    -3.14699000
 H     7.09915000    -1.88580000    -2.29427000
 H     5.75528000    -0.73718000    -2.09407000
 H     6.76409000    -2.21510000     0.54796000
 H     5.04235000    -2.42819000     0.93098000
 H     5.59455000    -0.92552000     0.19233000
 H     5.14169000    -8.63784000    -4.01931000
 H     3.79896000    -8.09495000    -2.98998000
 H     5.38447000    -8.46954000    -2.28120000

