%chk=003_NH3.chk
%mem=8GB
%nprocshared=8
# HF/6-31G Opt

003_NH3

0 1
 N     0.06775910    -0.00000000     0.00000000
 H    -0.31382291     0.46874559    -0.81189118
 H    -0.31382291    -0.93749118    -0.00000000
 H    -0.31382291     0.46874559     0.81189118

