%chk=004_CO.chk
%mem=8GB
%nprocshared=8
# HF/6-31G Opt

004_CO

0 1
 C     0.00000000     0.00000000    -0.66116488
 O     0.00000000     0.00000000     0.47237899

