%chk=007_N2.chk
%mem=8GB
%nprocshared=8
# HF/6-31G Opt

007_N2

0 1
 N     0.00000000     0.00000000     0.55038998
 N     0.00000000     0.00000000    -0.55038998

