%chk=010_Formamide.chk
%mem=8GB
%nprocshared=8
# HF/6-31G Opt

010_Formamide

0 1
 C     0.00096902     0.00000000     0.41970790
 O     1.20026470     0.00000000     0.23240841
 N    -0.93604058     0.00000000    -0.56208803
 H    -0.44521509     0.00000000     1.42281192
 H    -0.64165073     0.00000000    -1.52189729
 H    -1.91365033     0.00000000    -0.34413091

