%chk=011_H2S.chk
%mem=8GB
%nprocshared=8
# HF/6-31G Opt

011_H2S

0 1
 S     0.00000000     0.00000000    -0.26652056
 H     0.00000000     0.96219289     0.66259489
 H     0.00000000    -0.96219289     0.66259489

